NAME : 10_3_3_2_(04).dat
COMMENT : Henke, Speranza, Wäscher, 2015
TYPE : MCVRP
DIMENSION : 11
EDGE_WEIGHT_TYPE : DISTANCE_MATRIX
CAPACITY : 1000
VEHICLES : 2
PRODUCT TYPES : 3
COMPARTMENTS : 3
NODE_COORD_SECTION
1 50 50
2 98.42 68.3
3 99.19 81.09
4 76.34 3.77
5 3.82 22.59
6 71.07 7.27
7 38.58 11.12
8 67.08 8.26
9 15.14 15.65
10 43.16 26.04
11 59.91 78.58
DEMAND_SECTION
1 0 0 0
2 32 0 60
3 119 38 0
4 64 83 0
5 114 61 0
6 56 0 80
7 99 0 17
8 122 54 0
9 0 29 80
10 85 81 0
11 0 67 40
DEPOT_SECTION
1
EOF